100
100
25 2
25 2
32 4
38 5
30 3
42 5
25 3
45 4
30 3
41 4
48 5
46 4
38 3
43 5
28 2
27 3
37 4
48 4
25 3
39 3
39 5
38 4
40 5
29 3
42 4
42 5
41 5
40 4
27 3
41 5
37 3
41 6
45 5
28 3
30 3
30 3
29 3
45 6
44 5
33 3
26 2
40 4
41 5
33 3
43 5
38 3
31 3
27 3
30 3
40 5
41 4
27 2
39 5
35 4
30 3
41 4
30 4
33 3
28 3
44 4
33 3
30 3
32 4
38 4
41 5
34 4
29 3
34 4
43 5
43 5
43 5
36 5
48 7
44 5
39 5
30 3
25 3
44 5
48 5
47 5
42 6
37 3
44 5
36 4
45 5
35 4
42 6
49 5
37 4
41 4
39 4
41 5
35 3
27 3
43 6
43 4
40 4
44 6
38 5
45 6
